Version identifier: 22.1.0.0 | 2022-03-09 | 1a383f8ce
CPXPARAM_Threads                                 1
CPXPARAM_MIP_Strategy_VariableSelect             3
CPXPARAM_TimeLimit                               599.99997342999995
1 of 1 MIP starts provided solutions.
MIP start 'm1' defined initial solution with objective 2.0000.
Tried aggregator 1 time.
MIP Presolve eliminated 13 rows and 0 columns.
MIP Presolve modified 180 coefficients.
Reduced MIP has 1807 rows, 6000 columns, and 109837 nonzeros.
Reduced MIP has 6000 binaries, 0 generals, 0 SOSs, and 0 indicators.
Presolve time = 0.15 sec. (207.99 ticks)
Probing time = 0.02 sec. (17.72 ticks)
Tried aggregator 1 time.
Detecting symmetries...
MIP Presolve modified 13 coefficients.
Reduced MIP has 1807 rows, 6000 columns, and 110084 nonzeros.
Reduced MIP has 6000 binaries, 0 generals, 0 SOSs, and 0 indicators.
Presolve time = 0.12 sec. (158.38 ticks)
Probing time = 0.02 sec. (17.75 ticks)
Clique table members: 1279.
MIP emphasis: balance optimality and feasibility.
MIP search method: dynamic search.
Parallel mode: none, using 1 thread.
Root relaxation solution time = 2.43 sec. (2988.50 ticks)

        Nodes                                         Cuts/
   Node  Left     Objective  IInf  Best Integer    Best Bound    ItCnt     Gap

*     0+    0                            2.0000    45150.0000              --- 
      0     0      300.0000  1332        2.0000      300.0000     7574     --- 
      0     0      300.0000  1185        2.0000      Cuts: 15    28144     --- 
      0     0      300.0000  1206        2.0000      Cuts: 11    41409     --- 
      0     0      300.0000  1160        2.0000      Cuts: 29    47399     --- 
      0     0      300.0000  1134        2.0000      Cuts: 16    67103     --- 
      0     0      300.0000  1269        2.0000      Cuts: 32    87609     --- 
*     0+    0                           16.0000      300.0000              --- 
Detecting symmetries...
*     0+    0                          111.0000      300.0000           170.27%
*     0+    0                          193.0000      300.0000            55.44%
*     0+    0                          254.0000      300.0000            18.11%
      0     0        cutoff            254.0000      300.0000    87609   18.11%
Detecting symmetries...
      0     2      300.0000   849      254.0000      300.0000    87609   18.11%
Elapsed time = 103.97 sec. (120292.65 ticks, tree = 0.01 MB, solutions = 5)
      2     2      300.0000  1270      254.0000      300.0000    93551   18.11%
      3     3      300.0000  1170      254.0000      300.0000    99527   18.11%
      4     4      300.0000  1190      254.0000      300.0000   109525   18.11%
      5     5      300.0000  1169      254.0000      300.0000   109699   18.11%
      6     6      300.0000  1255      254.0000      300.0000   115080   18.11%
      7     7      300.0000  1176      254.0000      300.0000   115119   18.11%
      8     8      300.0000  1178      254.0000      300.0000   115577   18.11%
      9     9      300.0000  1180      254.0000      300.0000   115597   18.11%
     10    10      300.0000  1187      254.0000      300.0000   115752   18.11%
     12    12      300.0000  1260      254.0000      300.0000   116469   18.11%
Elapsed time = 118.23 sec. (135933.06 ticks, tree = 0.11 MB, solutions = 5)
     15    15      300.0000  1164      254.0000      300.0000   116912   18.11%
     18    18      300.0000  1161      254.0000      300.0000   118004   18.11%
     21    19      300.0000  1162      254.0000      300.0000   119037   18.11%
     23    21      300.0000  1184      254.0000      300.0000   119682   18.11%
     25    23      300.0000  1219      254.0000      300.0000   121687   18.11%
     28    26      300.0000  1151      254.0000      300.0000   122356   18.11%
     31    28      300.0000  1151      254.0000      300.0000   123737   18.11%
     33    30      300.0000  1184      254.0000      300.0000   124634   18.11%
     35    32      300.0000  1194      254.0000      300.0000   127882   18.11%
     37    34      300.0000  1008      254.0000      300.0000   129531   18.11%
Elapsed time = 129.12 sec. (148387.74 ticks, tree = 0.50 MB, solutions = 5)
     40    36      299.0000   986      254.0000      300.0000   137857   18.11%
     41    36      300.0000   997      254.0000      300.0000   145846   18.11%
     44    39      299.0000  1036      254.0000      300.0000   147209   18.11%
     46    40      299.0000  1004      254.0000      300.0000   152590   18.11%
     48    41      299.0000  1006      254.0000      300.0000   160962   18.11%
     50    43      300.0000   974      254.0000      300.0000   162337   18.11%
     51    44      300.0000   904      254.0000      300.0000   168020   18.11%
     53    46      300.0000   926      254.0000      300.0000   168775   18.11%
     55    48      300.0000   853      254.0000      300.0000   175270   18.11%
     57    48      299.0000   941      254.0000      300.0000   177550   18.11%
Elapsed time = 147.99 sec. (168586.91 ticks, tree = 0.75 MB, solutions = 5)
     59    50      300.0000   964      254.0000      300.0000   178467   18.11%
     61    52      300.0000   908      254.0000      300.0000   193018   18.11%
     63    54      300.0000   802      254.0000      300.0000   202821   18.11%
     66    55      299.0000   940      254.0000      300.0000   207286   18.11%
     68    56      299.0000   875      254.0000      300.0000   211957   18.11%
     70    57      299.0000   913      254.0000      300.0000   225213   18.11%
     71    58      300.0000   808      254.0000      300.0000   230918   18.11%
     73    59      300.0000   809      254.0000      300.0000   232736   18.11%
     75    61      300.0000   809      254.0000      300.0000   232745   18.11%
     76    61      299.0000   909      254.0000      300.0000   238447   18.11%
Elapsed time = 170.59 sec. (191747.08 ticks, tree = 0.93 MB, solutions = 5)
     79    62      299.0000   939      254.0000      300.0000   249928   18.11%
     80    63      300.0000   811      254.0000      300.0000   249937   18.11%
     81    63      299.0000   879      254.0000      300.0000   261022   18.11%
     84    65      300.0000   820      254.0000      300.0000   262064   18.11%
     87    67      300.0000   818      254.0000      300.0000   266972   18.11%
     89    68      300.0000   817      254.0000      300.0000   273175   18.11%
     91    69      300.0000   814      254.0000      300.0000   274259   18.11%
     94    70      300.0000   837      254.0000      300.0000   276127   18.11%
     98    73      299.0000   895      254.0000      300.0000   284085   18.11%
    100    74      299.0000   895      254.0000      300.0000   304766   18.11%
Elapsed time = 188.29 sec. (209462.66 ticks, tree = 1.15 MB, solutions = 5)
    103    76      300.0000   850      254.0000      300.0000   306844   18.11%
    106    78      299.0000   877      254.0000      300.0000   309481   18.11%
    109    81      300.0000   826      254.0000      300.0000   311283   18.11%
    110    81      299.0000   844      254.0000      300.0000   315872   18.11%
    112    82      300.0000   828      254.0000      300.0000   316020   18.11%
    114    83      300.0000   828      254.0000      300.0000   318316   18.11%
    115    83      299.0000   868      254.0000      300.0000   326509   18.11%
    117    84      299.0000   866      254.0000      300.0000   338355   18.11%
    119    86      299.0000   818      254.0000      300.0000   339144   18.11%
    120    87      300.0000   832      254.0000      300.0000   339318   18.11%
Elapsed time = 210.28 sec. (231979.80 ticks, tree = 1.36 MB, solutions = 5)
    122    88      300.0000   859      254.0000      300.0000   341198   18.11%
    124    89      300.0000   833      254.0000      300.0000   344332   18.11%
    127    91      300.0000   819      254.0000      300.0000   347620   18.11%
    129    92      300.0000   804      254.0000      300.0000   357572   18.11%
    130    93      300.0000   803      254.0000      300.0000   357641   18.11%
    132    94      300.0000   797      254.0000      300.0000   365964   18.11%
    134    95      300.0000   810      254.0000      300.0000   367932   18.11%
    137    97      300.0000   819      254.0000      300.0000   369660   18.11%
    139    98      300.0000   802      254.0000      300.0000   371394   18.11%
    140    99      300.0000   750      254.0000      300.0000   378356   18.11%
Elapsed time = 226.21 sec. (248723.15 ticks, tree = 1.55 MB, solutions = 5)
    142   100      299.0000   908      254.0000      300.0000   389239   18.11%
    145   101      299.0000   874      254.0000      300.0000   392744   18.11%
    149   103      299.0000   861      254.0000      300.0000   399843   18.11%
    151   104      299.0000   857      254.0000      300.0000   408198   18.11%
    153   105      299.0000   929      254.0000      300.0000   422556   18.11%
    155   106      299.0000   834      254.0000      300.0000   424760   18.11%
    156   107      300.0000   833      254.0000      300.0000   433768   18.11%
    158   109      299.0000   853      254.0000      300.0000   435356   18.11%
    160   110      299.0000  1029      254.0000      300.0000   436956   18.11%
    163   112      299.0000   974      254.0000      300.0000   439845   18.11%
Elapsed time = 244.97 sec. (268426.64 ticks, tree = 1.58 MB, solutions = 5)
    165   113      299.0000   915      254.0000      300.0000   441484   18.11%
    167   115      299.0000   884      254.0000      300.0000   443785   18.11%
    169   116      299.0000   953      254.0000      300.0000   452304   18.11%
    172   118      300.0000   800      254.0000      300.0000   455540   18.11%
    174   119      300.0000   795      254.0000      300.0000   461759   18.11%
    176   120      300.0000   789      254.0000      300.0000   472582   18.11%
    178   121      300.0000   790      254.0000      300.0000   477574   18.11%
    180   122      300.0000   789      254.0000      300.0000   479784   18.11%
    183   122      299.0000   883      254.0000      300.0000   482848   18.11%
    185   123      299.0000   866      254.0000      300.0000   494499   18.11%
Elapsed time = 256.49 sec. (280209.86 ticks, tree = 1.61 MB, solutions = 5)
    187   124      299.0000   911      254.0000      300.0000   499877   18.11%
    190   126      300.0000   788      254.0000      300.0000   503044   18.11%
    192   127      299.0000   934      254.0000      300.0000   504655   18.11%
    195   129      300.0000   814      254.0000      300.0000   514173   18.11%
    196   129      299.0000  1036      254.0000      300.0000   531677   18.11%
    197   130      300.0000   821      254.0000      300.0000   541048   18.11%
    199   131      299.0000   999      254.0000      300.0000   543552   18.11%
    200   132      300.0000   884      254.0000      300.0000   543666   18.11%
    201   132      299.0000   823      254.0000      300.0000   551007   18.11%
    208   137      300.0000   843      254.0000      300.0000   556338   18.11%
Elapsed time = 280.81 sec. (305488.74 ticks, tree = 1.65 MB, solutions = 5)
    215   141      300.0000   819      254.0000      300.0000   567287   18.11%
    222   144      300.0000   793      254.0000      300.0000   591093   18.11%
    229   148      300.0000   803      254.0000      300.0000   607330   18.11%
    238   153      299.0000  1067      254.0000      300.0000   614684   18.11%
    246   158      299.0000   790      254.0000      300.0000   638310   18.11%
    253   162      299.0000   922      254.0000      300.0000   652837   18.11%
    261   166      299.0000   925      254.0000      300.0000   672796   18.11%
    269   169      299.0000   933      254.0000      300.0000   705923   18.11%
    274   171      299.0000   915      254.0000      300.0000   721592   18.11%
    282   175    infeasible            254.0000      300.0000   729556   18.11%
Elapsed time = 324.62 sec. (351114.44 ticks, tree = 2.25 MB, solutions = 5)
    293   176      299.0000   889      254.0000      300.0000   736589   18.11%
    302   175    infeasible            254.0000      300.0000   745023   18.11%
    310   175    infeasible            254.0000      300.0000   751079   18.11%
    322   177    infeasible            254.0000      300.0000   757114   18.11%
    332   177    infeasible            254.0000      300.0000   778822   18.11%
    333   177      299.0000   963      254.0000      300.0000   791443   18.11%
    342   181    infeasible            254.0000      300.0000   796471   18.11%
    352   181    infeasible            254.0000      300.0000   803889   18.11%
    362   182      299.0000   902      254.0000      300.0000   809743   18.11%
    369   183      299.0000   887      254.0000      300.0000   823212   18.11%
Elapsed time = 368.50 sec. (398499.26 ticks, tree = 2.37 MB, solutions = 5)
    378   182    infeasible            254.0000      300.0000   831723   18.11%
    388   182    infeasible            254.0000      300.0000   839873   18.11%
    399   183      299.0000   841      254.0000      300.0000   847873   18.11%
    409   184      299.0000   834      254.0000      300.0000   855665   18.11%
    420   187    infeasible            254.0000      300.0000   863892   18.11%
    432   187    infeasible            254.0000      300.0000   872650   18.11%
    437   188      299.0000   741      254.0000      300.0000   887411   18.11%
    448   189    infeasible            254.0000      300.0000   895917   18.11%
    455   190      299.0000   861      254.0000      300.0000   911899   18.11%
    468   190      299.0000   871      254.0000      300.0000   919246   18.11%
Elapsed time = 407.56 sec. (441087.09 ticks, tree = 2.49 MB, solutions = 5)
    471   189    infeasible            254.0000      300.0000   932292   18.11%
    483   189    infeasible            254.0000      300.0000   940799   18.11%
    494   189      299.0000   851      254.0000      300.0000   948216   18.11%
    507   190      299.0000   846      254.0000      300.0000   955265   18.11%
    520   189    infeasible            254.0000      300.0000   962828   18.11%
    530   189    infeasible            254.0000      300.0000   971273   18.11%
    540   189    infeasible            254.0000      300.0000   979034   18.11%
    553   190      299.0000   849      254.0000      300.0000   986180   18.11%
    564   189    infeasible            254.0000      300.0000   995301   18.11%
    579   190      299.0000   813      254.0000      300.0000  1002636   18.11%
Elapsed time = 444.12 sec. (481382.65 ticks, tree = 2.49 MB, solutions = 5)
    587   190      299.0000   826      254.0000      300.0000  1014517   18.11%
    597   188    infeasible            254.0000      300.0000  1029135   18.11%
    602   190      299.0000  1003      254.0000      300.0000  1046950   18.11%
    609   195      299.0000   874      254.0000      300.0000  1053575   18.11%
    621   200      299.0000   824      254.0000      300.0000  1059631   18.11%
    630   200      299.0000   799      254.0000      300.0000  1078895   18.11%
    637   204      299.0000   805      254.0000      300.0000  1086416   18.11%
    645   210      299.0000   843      254.0000      300.0000  1092655   18.11%
    657   210    infeasible            254.0000      300.0000  1100804   18.11%
    669   211      299.0000   809      254.0000      300.0000  1119717   18.11%
Elapsed time = 497.13 sec. (537960.19 ticks, tree = 2.88 MB, solutions = 5)
    680   211    infeasible            254.0000      300.0000  1126917   18.11%
    690   211    infeasible            254.0000      300.0000  1135612   18.11%
    700   213      299.0000   828      254.0000      300.0000  1143244   18.11%
    711   216    infeasible            254.0000      300.0000  1150612   18.11%
    720   217      299.0000   792      254.0000      300.0000  1157231   18.11%
    731   216    infeasible            254.0000      300.0000  1166288   18.11%
    743   216    infeasible            254.0000      300.0000  1175359   18.11%
    746   216    infeasible            254.0000      300.0000  1189294   18.11%
    756   216    infeasible            254.0000      300.0000  1198769   18.11%
    768   216    infeasible            254.0000      300.0000  1207682   18.11%
Elapsed time = 536.80 sec. (581023.88 ticks, tree = 2.96 MB, solutions = 5)
    780   216    infeasible            254.0000      300.0000  1216661   18.11%
    794   216    infeasible            254.0000      300.0000  1225203   18.11%
Starting limited solution polishing.
    804   218    infeasible            254.0000      300.0000  1234538   18.11%
    808   219      299.0000   705      254.0000      300.0000  1247090   18.11%
    820   218    infeasible            254.0000      300.0000  1255875   18.11%
    834   219      299.0000   720      254.0000      300.0000  1263540   18.11%
    840   219      299.0000   717      254.0000      300.0000  1267960   18.11%
    854   219      299.0000   712      254.0000      300.0000  1275851   18.11%
    864   220      299.0000   749      254.0000      300.0000  1291842   18.11%
    875   221      299.0000   778      254.0000      300.0000  1300213   18.11%
Elapsed time = 577.03 sec. (623227.84 ticks, tree = 3.03 MB, solutions = 5)
    885   221      299.0000   819      254.0000      300.0000  1310061   18.11%
    897   222      299.0000   713      254.0000      300.0000  1317714   18.11%
    910   220      299.0000   951      254.0000      300.0000  1334543   18.11%
    918   224    infeasible            254.0000      300.0000  1341376   18.11%

Clique cuts applied:  71
Cover cuts applied:  1
Zero-half cuts applied:  14
Gomory fractional cuts applied:  1

Root node processing (before b&c):
  Real time             =  103.78 sec. (120145.17 ticks)
Sequential b&c:
  Real time             =  496.22 sec. (528156.35 ticks)
                          ------------
Total (root+branch&cut) =  600.00 sec. (648301.52 ticks)
Primal:	254
Dual:	300
Status:	Feasible
Time:	600.04
Sequence:
	14
	0
	10
	7
	10
	5
	8
	10
	4
	15
	0
	10
	5
	3
	10
	0
	15
	5
	2
	11
	0
	10
	5
	10
	4
	15
	0
	15
	2
	15
	0
	8
	10
	4
	15
	0
	7
	15
	0
	12
	5
	15
	2
	5
	15
	0
	15
	3
	5
	15
	0
	7
	11
	0
	15
	8
	10
	4
	10
	7
	15
	0
	12
	5
	15
	2
	10
	5
	4
	10
	7
	15
	0
	15
	0
	7
	10
	5
	10
	5
	15
	3
	5
	10
	5
	7
	10
	1
	15
	5
	10
	7
	5
	10
	7
	6
	10
	5
	10
	7
	5
	10
	5
	4
	10
	5
	15
	0
	15
	2
	6
	15
	0
	10
	7
	0
	15
	0
	15
	4
	10
	7
	5
	0
	10
	7
	10
	4
	13
	5
	15
	2
	15
	0
	15
	6
	10
	2
	15
	5
	10
	7
	6
	10
	0
	10
	7
	10
	5
	15
	1
	2
	15
	5
	10
	0
	7
	10
	6
	10
	5
	10
	7
	15
	1
	15
	7
	10
	5
	15
	0
	15
	7
	10
	0
	15
	3
	15
	0
	15
	0
	3
	15
	5
	10
	8
	4
	10
	7
	15
	0
	15
	6
	2
	10
	0
	15
	4
	0
	10
	0
	15
	7
	10
	5
	13
	4
	15
	2
	15
	5
	10
	7
	15
	1
	15
	5
	10
	2
	5
	15
	0
	4
	15
	2
	15
	5
	10
	4
	0
	7
	15
	0
	4
	10
	7
	10
	5
	5
	10
	7
	11
	5
	15
	2
	15
	4
	13
	5
	15
	2
	10
	5
	9
